NAME: GRASP_10_2
TYPE: TSP
COMMENT: line_10_2
DIMENSION: 10
EDGE_WEIGHT_TYPE: EUC_2D
NODE_COORD_SECTION
1 0.0 58.0
2 0.0 58.0
3 0.0 68.0
4 0.0 3.0
5 0.0 0.0
6 0.0 63.0
7 0.0 43.0
8 0.0 53.0
9 0.0 23.0
10 0.0 90.0
